c turning on binary mode checking
c parsing input formula with 259840 variables and 1039924 clauses
c finished parsing, read 42988802 bytes from proof file
c detected empty clause; start verification via backward checking
c 87076 of 1039924 clauses in core                            
c 165730 of 853336 lemmas in core using 2957662 resolution steps
c 0 RAT lemmas in core; 34741 redundant literals in core lemmas
s VERIFIED
c verification time: 14.566 seconds
